\ENCODING=ISO-8859-1
\Problem name: IloCplex

Maximize
 Max_Cycle_Covers_Objective: s_0_22 + s_0_29 + s_0_39 + s_3_0 + s_11_0 + s_28_0
                             + s_29_0 + s_34_0 + s_42_0 + s_1_22 + s_1_23
                             + s_1_45 + s_9_1 + s_19_1 + s_34_1 + s_40_1
                             + s_41_1 + s_46_1 + s_2_15 + s_2_32 + s_2_35
                             + s_2_42 + s_2_43 + s_2_44 + s_2_46 + s_3_2
                             + s_19_2 + s_27_2 + s_28_2 + s_34_2 + s_41_2
                             + s_43_2 + s_46_2 + s_47_2 + s_3_4 + s_3_8
                             + s_3_19 + s_3_20 + s_3_29 + s_3_35 + s_3_41
                             + s_12_3 + s_27_3 + s_29_3 + s_34_3 + s_4_21
                             + s_4_33 + s_4_38 + s_4_41 + s_4_45 + s_4_49
                             + s_7_4 + s_19_4 + s_30_4 + s_34_4 + s_38_4
                             + s_41_4 + s_7_5 + s_8_5 + s_12_5 + s_18_5
                             + s_19_5 + s_24_5 + s_30_5 + s_34_5 + s_35_5
                             + s_45_5 + s_6_18 + s_9_6 + s_10_6 + s_20_6
                             + s_31_6 + s_32_6 + s_34_6 + s_7_13 + s_7_15
                             + s_7_26 + s_7_34 + s_7_37 + s_7_42 + s_7_47
                             + s_7_48 + s_8_7 + s_32_7 + s_34_7 + s_8_15
                             + s_8_17 + s_8_36 + s_8_38 + s_8_45 + s_12_8
                             + s_34_8 + s_36_8 + s_39_8 + s_9_12 + s_9_17
                             + s_9_24 + s_9_26 + s_9_35 + s_24_9 + s_34_9
                             + s_10_38 + s_18_10 + s_34_10 + s_41_10 + s_11_24
                             + s_11_26 + s_11_30 + s_11_40 + s_11_47 + s_34_11
                             + s_12_29 + s_12_34 + s_12_36 + s_12_38 + s_18_12
                             + s_34_12 + s_40_12 + s_13_17 + s_23_13 + s_32_13
                             + s_34_13 + s_40_13 + s_48_13 + s_14_20 + s_15_14
                             + s_19_14 + s_20_14 + s_24_14 + s_28_14 + s_36_14
                             + s_39_14 + s_15_17 + s_15_20 + s_39_15 + s_16_30
                             + s_16_46 + s_30_16 + s_34_16 + s_40_16 + s_42_16
                             + s_17_20 + s_17_26 + s_17_30 + s_17_37 + s_17_38
                             + s_19_17 + s_26_17 + s_34_17 + s_40_17 + s_47_17
                             + s_18_29 + s_30_18 + s_34_18 + s_41_18 + s_19_20
                             + s_19_22 + s_19_23 + s_19_26 + s_19_29 + s_19_30
                             + s_19_37 + s_19_38 + s_19_41 + s_19_42 + s_19_43
                             + s_19_45 + s_19_46 + s_19_47 + s_34_19 + s_36_19
                             + s_20_43 + s_34_20 + s_40_20 + s_21_43 + s_29_21
                             + s_34_21 + s_48_21 + s_22_45 + s_31_22 + s_34_22
                             + s_36_22 + s_40_22 + s_41_22 + s_49_22 + s_23_32
                             + s_31_23 + s_34_23 + s_42_23 + s_48_23 + s_30_24
                             + s_34_24 + s_25_26 + s_27_25 + s_34_25 + s_26_41
                             + s_26_46 + s_33_26 + s_34_26 + s_27_28 + s_27_32
                             + s_27_43 + s_28_27 + s_48_27 + s_28_38 + s_28_39
                             + s_39_28 + s_29_31 + s_29_44 + s_29_46 + s_32_29
                             + s_34_29 + s_30_34 + s_30_36 + s_30_47 + s_34_30
                             + s_41_30 + s_34_31 + s_32_36 + s_34_32 + s_42_32
                             + s_33_37 + s_33_38 + s_33_41 + s_34_33 + s_48_33
                             + s_34_35 + s_34_36 + s_34_37 + s_34_39 + s_34_40
                             + s_34_41 + s_34_42 + s_34_43 + s_34_44 + s_34_46
                             + s_36_35 + s_36_37 + s_48_36 + s_37_47 + s_39_37
                             + s_40_38 + s_41_38 + s_39_48 + s_41_40 + s_41_42
                             + s_41_49 + s_42_46 + s_43_46 + s_45_43 + s_48_45
                             + s_46_47
Subject To
 Conservation_0:  s_0_22 + s_0_29 + s_0_39 - s_3_0 - s_11_0 - s_28_0 - s_29_0
                  - s_34_0 - s_42_0  = 0
 Capacity_0:      s_0_22 + s_0_29 + s_0_39 <= 1
 Conservation_1:  s_1_22 + s_1_23 + s_1_45 - s_9_1 - s_19_1 - s_34_1 - s_40_1
                  - s_41_1 - s_46_1  = 0
 Capacity_1:      s_1_22 + s_1_23 + s_1_45 <= 1
 Conservation_2:  s_2_15 + s_2_32 + s_2_35 + s_2_42 + s_2_43 + s_2_44 + s_2_46
                  - s_3_2 - s_19_2 - s_27_2 - s_28_2 - s_34_2 - s_41_2 - s_43_2
                  - s_46_2 - s_47_2  = 0
 Capacity_2:      s_2_15 + s_2_32 + s_2_35 + s_2_42 + s_2_43 + s_2_44 + s_2_46
                  <= 1
 Conservation_3:  s_3_0 + s_3_2 + s_3_4 + s_3_8 + s_3_19 + s_3_20 + s_3_29
                  + s_3_35 + s_3_41 - s_12_3 - s_27_3 - s_29_3 - s_34_3  = 0
 Capacity_3:      s_3_0 + s_3_2 + s_3_4 + s_3_8 + s_3_19 + s_3_20 + s_3_29
                  + s_3_35 + s_3_41 <= 1
 Conservation_4:  - s_3_4 + s_4_21 + s_4_33 + s_4_38 + s_4_41 + s_4_45 + s_4_49
                  - s_7_4 - s_19_4 - s_30_4 - s_34_4 - s_38_4 - s_41_4  = 0
 Capacity_4:      s_4_21 + s_4_33 + s_4_38 + s_4_41 + s_4_45 + s_4_49 <= 1
 Conservation_5:  - s_7_5 - s_8_5 - s_12_5 - s_18_5 - s_19_5 - s_24_5 - s_30_5
                  - s_34_5 - s_35_5 - s_45_5  = 0
 Capacity_5:      <= 1
 Conservation_6:  s_6_18 - s_9_6 - s_10_6 - s_20_6 - s_31_6 - s_32_6 - s_34_6
                   = 0
 Capacity_6:      s_6_18 <= 1
 Conservation_7:  s_7_4 + s_7_5 + s_7_13 + s_7_15 + s_7_26 + s_7_34 + s_7_37
                  + s_7_42 + s_7_47 + s_7_48 - s_8_7 - s_32_7 - s_34_7  = 0
 Capacity_7:      s_7_4 + s_7_5 + s_7_13 + s_7_15 + s_7_26 + s_7_34 + s_7_37
                  + s_7_42 + s_7_47 + s_7_48 <= 1
 Conservation_8:  - s_3_8 + s_8_5 + s_8_7 + s_8_15 + s_8_17 + s_8_36 + s_8_38
                  + s_8_45 - s_12_8 - s_34_8 - s_36_8 - s_39_8  = 0
 Capacity_8:      s_8_5 + s_8_7 + s_8_15 + s_8_17 + s_8_36 + s_8_38 + s_8_45
                  <= 1
 Conservation_9:  s_9_1 + s_9_6 + s_9_12 + s_9_17 + s_9_24 + s_9_26 + s_9_35
                  - s_24_9 - s_34_9  = 0
 Capacity_9:      s_9_1 + s_9_6 + s_9_12 + s_9_17 + s_9_24 + s_9_26 + s_9_35
                  <= 1
 Conservation_10: s_10_6 + s_10_38 - s_18_10 - s_34_10 - s_41_10  = 0
 Capacity_10:     s_10_6 + s_10_38 <= 1
 Conservation_11: s_11_0 + s_11_24 + s_11_26 + s_11_30 + s_11_40 + s_11_47
                  - s_34_11  = 0
 Capacity_11:     s_11_0 + s_11_24 + s_11_26 + s_11_30 + s_11_40 + s_11_47 <= 1
 Conservation_12: s_12_3 + s_12_5 + s_12_8 - s_9_12 + s_12_29 + s_12_34
                  + s_12_36 + s_12_38 - s_18_12 - s_34_12 - s_40_12  = 0
 Capacity_12:     s_12_3 + s_12_5 + s_12_8 + s_12_29 + s_12_34 + s_12_36
                  + s_12_38 <= 1
 Conservation_13: - s_7_13 + s_13_17 - s_23_13 - s_32_13 - s_34_13 - s_40_13
                  - s_48_13  = 0
 Capacity_13:     s_13_17 <= 1
 Conservation_14: s_14_20 - s_15_14 - s_19_14 - s_20_14 - s_24_14 - s_28_14
                  - s_36_14 - s_39_14  = 0
 Capacity_14:     s_14_20 <= 1
 Conservation_15: - s_2_15 - s_7_15 - s_8_15 + s_15_14 + s_15_17 + s_15_20
                  - s_39_15  = 0
 Capacity_15:     s_15_14 + s_15_17 + s_15_20 <= 1
 Conservation_16: s_16_30 + s_16_46 - s_30_16 - s_34_16 - s_40_16 - s_42_16
                   = 0
 Capacity_16:     s_16_30 + s_16_46 <= 1
 Conservation_17: - s_8_17 - s_9_17 - s_13_17 - s_15_17 + s_17_20 + s_17_26
                  + s_17_30 + s_17_37 + s_17_38 - s_19_17 - s_26_17 - s_34_17
                  - s_40_17 - s_47_17  = 0
 Capacity_17:     s_17_20 + s_17_26 + s_17_30 + s_17_37 + s_17_38 <= 1
 Conservation_18: s_18_5 - s_6_18 + s_18_10 + s_18_12 + s_18_29 - s_30_18
                  - s_34_18 - s_41_18  = 0
 Capacity_18:     s_18_5 + s_18_10 + s_18_12 + s_18_29 <= 1
 Conservation_19: s_19_1 + s_19_2 - s_3_19 + s_19_4 + s_19_5 + s_19_14
                  + s_19_17 + s_19_20 + s_19_22 + s_19_23 + s_19_26 + s_19_29
                  + s_19_30 + s_19_37 + s_19_38 + s_19_41 + s_19_42 + s_19_43
                  + s_19_45 + s_19_46 + s_19_47 - s_34_19 - s_36_19  = 0
 Capacity_19:     s_19_1 + s_19_2 + s_19_4 + s_19_5 + s_19_14 + s_19_17
                  + s_19_20 + s_19_22 + s_19_23 + s_19_26 + s_19_29 + s_19_30
                  + s_19_37 + s_19_38 + s_19_41 + s_19_42 + s_19_43 + s_19_45
                  + s_19_46 + s_19_47 <= 1
 Conservation_20: - s_3_20 + s_20_6 - s_14_20 + s_20_14 - s_15_20 - s_17_20
                  - s_19_20 + s_20_43 - s_34_20 - s_40_20  = 0
 Capacity_20:     s_20_6 + s_20_14 + s_20_43 <= 1
 Conservation_21: - s_4_21 + s_21_43 - s_29_21 - s_34_21 - s_48_21  = 0
 Capacity_21:     s_21_43 <= 1
 Conservation_22: - s_0_22 - s_1_22 - s_19_22 + s_22_45 - s_31_22 - s_34_22
                  - s_36_22 - s_40_22 - s_41_22 - s_49_22  = 0
 Capacity_22:     s_22_45 <= 1
 Conservation_23: - s_1_23 + s_23_13 - s_19_23 + s_23_32 - s_31_23 - s_34_23
                  - s_42_23 - s_48_23  = 0
 Capacity_23:     s_23_13 + s_23_32 <= 1
 Conservation_24: s_24_5 - s_9_24 + s_24_9 - s_11_24 + s_24_14 - s_30_24
                  - s_34_24  = 0
 Capacity_24:     s_24_5 + s_24_9 + s_24_14 <= 1
 Conservation_25: s_25_26 - s_27_25 - s_34_25  = 0
 Capacity_25:     s_25_26 <= 1
 Conservation_26: - s_7_26 - s_9_26 - s_11_26 - s_17_26 + s_26_17 - s_19_26
                  - s_25_26 + s_26_41 + s_26_46 - s_33_26 - s_34_26  = 0
 Capacity_26:     s_26_17 + s_26_41 + s_26_46 <= 1
 Conservation_27: s_27_2 + s_27_3 + s_27_25 + s_27_28 + s_27_32 + s_27_43
                  - s_28_27 - s_48_27  = 0
 Capacity_27:     s_27_2 + s_27_3 + s_27_25 + s_27_28 + s_27_32 + s_27_43 <= 1
 Conservation_28: s_28_0 + s_28_2 + s_28_14 - s_27_28 + s_28_27 + s_28_38
                  + s_28_39 - s_39_28  = 0
 Capacity_28:     s_28_0 + s_28_2 + s_28_14 + s_28_27 + s_28_38 + s_28_39 <= 1
 Conservation_29: - s_0_29 + s_29_0 - s_3_29 + s_29_3 - s_12_29 - s_18_29
                  - s_19_29 + s_29_21 + s_29_31 + s_29_44 + s_29_46 - s_32_29
                  - s_34_29  = 0
 Capacity_29:     s_29_0 + s_29_3 + s_29_21 + s_29_31 + s_29_44 + s_29_46 <= 1
 Conservation_30: s_30_4 + s_30_5 - s_11_30 - s_16_30 + s_30_16 - s_17_30
                  + s_30_18 - s_19_30 + s_30_24 + s_30_34 + s_30_36 + s_30_47
                  - s_34_30 - s_41_30  = 0
 Capacity_30:     s_30_4 + s_30_5 + s_30_16 + s_30_18 + s_30_24 + s_30_34
                  + s_30_36 + s_30_47 <= 1
 Conservation_31: s_31_6 + s_31_22 + s_31_23 - s_29_31 - s_34_31  = 0
 Capacity_31:     s_31_6 + s_31_22 + s_31_23 <= 1
 Conservation_32: - s_2_32 + s_32_6 + s_32_7 + s_32_13 - s_23_32 - s_27_32
                  + s_32_29 + s_32_36 - s_34_32 - s_42_32  = 0
 Capacity_32:     s_32_6 + s_32_7 + s_32_13 + s_32_29 + s_32_36 <= 1
 Conservation_33: - s_4_33 + s_33_26 + s_33_37 + s_33_38 + s_33_41 - s_34_33
                  - s_48_33  = 0
 Capacity_33:     s_33_26 + s_33_37 + s_33_38 + s_33_41 <= 1
 Conservation_34: s_34_0 + s_34_1 + s_34_2 + s_34_3 + s_34_4 + s_34_5 + s_34_6
                  - s_7_34 + s_34_7 + s_34_8 + s_34_9 + s_34_10 + s_34_11
                  - s_12_34 + s_34_12 + s_34_13 + s_34_16 + s_34_17 + s_34_18
                  + s_34_19 + s_34_20 + s_34_21 + s_34_22 + s_34_23 + s_34_24
                  + s_34_25 + s_34_26 + s_34_29 - s_30_34 + s_34_30 + s_34_31
                  + s_34_32 + s_34_33 + s_34_35 + s_34_36 + s_34_37 + s_34_39
                  + s_34_40 + s_34_41 + s_34_42 + s_34_43 + s_34_44 + s_34_46
                   = 0
 Capacity_34:     s_34_0 + s_34_1 + s_34_2 + s_34_3 + s_34_4 + s_34_5 + s_34_6
                  + s_34_7 + s_34_8 + s_34_9 + s_34_10 + s_34_11 + s_34_12
                  + s_34_13 + s_34_16 + s_34_17 + s_34_18 + s_34_19 + s_34_20
                  + s_34_21 + s_34_22 + s_34_23 + s_34_24 + s_34_25 + s_34_26
                  + s_34_29 + s_34_30 + s_34_31 + s_34_32 + s_34_33 + s_34_35
                  + s_34_36 + s_34_37 + s_34_39 + s_34_40 + s_34_41 + s_34_42
                  + s_34_43 + s_34_44 + s_34_46 <= 1
 Conservation_35: - s_2_35 - s_3_35 + s_35_5 - s_9_35 - s_34_35 - s_36_35  = 0
 Capacity_35:     s_35_5 <= 1
 Conservation_36: - s_8_36 + s_36_8 - s_12_36 + s_36_14 + s_36_19 + s_36_22
                  - s_30_36 - s_32_36 - s_34_36 + s_36_35 + s_36_37 - s_48_36
                   = 0
 Capacity_36:     s_36_8 + s_36_14 + s_36_19 + s_36_22 + s_36_35 + s_36_37 <= 1
 Conservation_37: - s_7_37 - s_17_37 - s_19_37 - s_33_37 - s_34_37 - s_36_37
                  + s_37_47 - s_39_37  = 0
 Capacity_37:     s_37_47 <= 1
 Conservation_38: - s_4_38 + s_38_4 - s_8_38 - s_10_38 - s_12_38 - s_17_38
                  - s_19_38 - s_28_38 - s_33_38 - s_40_38 - s_41_38  = 0
 Capacity_38:     s_38_4 <= 1
 Conservation_39: - s_0_39 + s_39_8 + s_39_14 + s_39_15 - s_28_39 + s_39_28
                  - s_34_39 + s_39_37 + s_39_48  = 0
 Capacity_39:     s_39_8 + s_39_14 + s_39_15 + s_39_28 + s_39_37 + s_39_48 <= 1
 Conservation_40: s_40_1 - s_11_40 + s_40_12 + s_40_13 + s_40_16 + s_40_17
                  + s_40_20 + s_40_22 - s_34_40 + s_40_38 - s_41_40  = 0
 Capacity_40:     s_40_1 + s_40_12 + s_40_13 + s_40_16 + s_40_17 + s_40_20
                  + s_40_22 + s_40_38 <= 1
 Conservation_41: s_41_1 + s_41_2 - s_3_41 - s_4_41 + s_41_4 + s_41_10
                  + s_41_18 - s_19_41 + s_41_22 - s_26_41 + s_41_30 - s_33_41
                  - s_34_41 + s_41_38 + s_41_40 + s_41_42 + s_41_49  = 0
 Capacity_41:     s_41_1 + s_41_2 + s_41_4 + s_41_10 + s_41_18 + s_41_22
                  + s_41_30 + s_41_38 + s_41_40 + s_41_42 + s_41_49 <= 1
 Conservation_42: s_42_0 - s_2_42 - s_7_42 + s_42_16 - s_19_42 + s_42_23
                  + s_42_32 - s_34_42 - s_41_42 + s_42_46  = 0
 Capacity_42:     s_42_0 + s_42_16 + s_42_23 + s_42_32 + s_42_46 <= 1
 Conservation_43: - s_2_43 + s_43_2 - s_19_43 - s_20_43 - s_21_43 - s_27_43
                  - s_34_43 + s_43_46 - s_45_43  = 0
 Capacity_43:     s_43_2 + s_43_46 <= 1
 Conservation_44: - s_2_44 - s_29_44 - s_34_44  = 0
 Capacity_44:     <= 1
 Conservation_45: - s_1_45 - s_4_45 + s_45_5 - s_8_45 - s_19_45 - s_22_45
                  + s_45_43 - s_48_45  = 0
 Capacity_45:     s_45_5 + s_45_43 <= 1
 Conservation_46: s_46_1 - s_2_46 + s_46_2 - s_16_46 - s_19_46 - s_26_46
                  - s_29_46 - s_34_46 - s_42_46 - s_43_46 + s_46_47  = 0
 Capacity_46:     s_46_1 + s_46_2 + s_46_47 <= 1
 Conservation_47: s_47_2 - s_7_47 - s_11_47 + s_47_17 - s_19_47 - s_30_47
                  - s_37_47 - s_46_47  = 0
 Capacity_47:     s_47_2 + s_47_17 <= 1
 Conservation_48: - s_7_48 + s_48_13 + s_48_21 + s_48_23 + s_48_27 + s_48_33
                  + s_48_36 - s_39_48 + s_48_45  = 0
 Capacity_48:     s_48_13 + s_48_21 + s_48_23 + s_48_27 + s_48_33 + s_48_36
                  + s_48_45 <= 1
 Conservation_49: - s_4_49 + s_49_22 - s_41_49  = 0
 Capacity_49:     s_49_22 <= 1
Bounds
 0 <= s_0_22 <= 1
 0 <= s_0_29 <= 1
 0 <= s_0_39 <= 1
 0 <= s_3_0 <= 1
 0 <= s_11_0 <= 1
 0 <= s_28_0 <= 1
 0 <= s_29_0 <= 1
 0 <= s_34_0 <= 1
 0 <= s_42_0 <= 1
 0 <= s_1_22 <= 1
 0 <= s_1_23 <= 1
 0 <= s_1_45 <= 1
 0 <= s_9_1 <= 1
 0 <= s_19_1 <= 1
 0 <= s_34_1 <= 1
 0 <= s_40_1 <= 1
 0 <= s_41_1 <= 1
 0 <= s_46_1 <= 1
 0 <= s_2_15 <= 1
 0 <= s_2_32 <= 1
 0 <= s_2_35 <= 1
 0 <= s_2_42 <= 1
 0 <= s_2_43 <= 1
 0 <= s_2_44 <= 1
 0 <= s_2_46 <= 1
 0 <= s_3_2 <= 1
 0 <= s_19_2 <= 1
 0 <= s_27_2 <= 1
 0 <= s_28_2 <= 1
 0 <= s_34_2 <= 1
 0 <= s_41_2 <= 1
 0 <= s_43_2 <= 1
 0 <= s_46_2 <= 1
 0 <= s_47_2 <= 1
 0 <= s_3_4 <= 1
 0 <= s_3_8 <= 1
 0 <= s_3_19 <= 1
 0 <= s_3_20 <= 1
 0 <= s_3_29 <= 1
 0 <= s_3_35 <= 1
 0 <= s_3_41 <= 1
 0 <= s_12_3 <= 1
 0 <= s_27_3 <= 1
 0 <= s_29_3 <= 1
 0 <= s_34_3 <= 1
 0 <= s_4_21 <= 1
 0 <= s_4_33 <= 1
 0 <= s_4_38 <= 1
 0 <= s_4_41 <= 1
 0 <= s_4_45 <= 1
 0 <= s_4_49 <= 1
 0 <= s_7_4 <= 1
 0 <= s_19_4 <= 1
 0 <= s_30_4 <= 1
 0 <= s_34_4 <= 1
 0 <= s_38_4 <= 1
 0 <= s_41_4 <= 1
 0 <= s_7_5 <= 1
 0 <= s_8_5 <= 1
 0 <= s_12_5 <= 1
 0 <= s_18_5 <= 1
 0 <= s_19_5 <= 1
 0 <= s_24_5 <= 1
 0 <= s_30_5 <= 1
 0 <= s_34_5 <= 1
 0 <= s_35_5 <= 1
 0 <= s_45_5 <= 1
 0 <= s_6_18 <= 1
 0 <= s_9_6 <= 1
 0 <= s_10_6 <= 1
 0 <= s_20_6 <= 1
 0 <= s_31_6 <= 1
 0 <= s_32_6 <= 1
 0 <= s_34_6 <= 1
 0 <= s_7_13 <= 1
 0 <= s_7_15 <= 1
 0 <= s_7_26 <= 1
 0 <= s_7_34 <= 1
 0 <= s_7_37 <= 1
 0 <= s_7_42 <= 1
 0 <= s_7_47 <= 1
 0 <= s_7_48 <= 1
 0 <= s_8_7 <= 1
 0 <= s_32_7 <= 1
 0 <= s_34_7 <= 1
 0 <= s_8_15 <= 1
 0 <= s_8_17 <= 1
 0 <= s_8_36 <= 1
 0 <= s_8_38 <= 1
 0 <= s_8_45 <= 1
 0 <= s_12_8 <= 1
 0 <= s_34_8 <= 1
 0 <= s_36_8 <= 1
 0 <= s_39_8 <= 1
 0 <= s_9_12 <= 1
 0 <= s_9_17 <= 1
 0 <= s_9_24 <= 1
 0 <= s_9_26 <= 1
 0 <= s_9_35 <= 1
 0 <= s_24_9 <= 1
 0 <= s_34_9 <= 1
 0 <= s_10_38 <= 1
 0 <= s_18_10 <= 1
 0 <= s_34_10 <= 1
 0 <= s_41_10 <= 1
 0 <= s_11_24 <= 1
 0 <= s_11_26 <= 1
 0 <= s_11_30 <= 1
 0 <= s_11_40 <= 1
 0 <= s_11_47 <= 1
 0 <= s_34_11 <= 1
 0 <= s_12_29 <= 1
 0 <= s_12_34 <= 1
 0 <= s_12_36 <= 1
 0 <= s_12_38 <= 1
 0 <= s_18_12 <= 1
 0 <= s_34_12 <= 1
 0 <= s_40_12 <= 1
 0 <= s_13_17 <= 1
 0 <= s_23_13 <= 1
 0 <= s_32_13 <= 1
 0 <= s_34_13 <= 1
 0 <= s_40_13 <= 1
 0 <= s_48_13 <= 1
 0 <= s_14_20 <= 1
 0 <= s_15_14 <= 1
 0 <= s_19_14 <= 1
 0 <= s_20_14 <= 1
 0 <= s_24_14 <= 1
 0 <= s_28_14 <= 1
 0 <= s_36_14 <= 1
 0 <= s_39_14 <= 1
 0 <= s_15_17 <= 1
 0 <= s_15_20 <= 1
 0 <= s_39_15 <= 1
 0 <= s_16_30 <= 1
 0 <= s_16_46 <= 1
 0 <= s_30_16 <= 1
 0 <= s_34_16 <= 1
 0 <= s_40_16 <= 1
 0 <= s_42_16 <= 1
 0 <= s_17_20 <= 1
 0 <= s_17_26 <= 1
 0 <= s_17_30 <= 1
 0 <= s_17_37 <= 1
 0 <= s_17_38 <= 1
 0 <= s_19_17 <= 1
 0 <= s_26_17 <= 1
 0 <= s_34_17 <= 1
 0 <= s_40_17 <= 1
 0 <= s_47_17 <= 1
 0 <= s_18_29 <= 1
 0 <= s_30_18 <= 1
 0 <= s_34_18 <= 1
 0 <= s_41_18 <= 1
 0 <= s_19_20 <= 1
 0 <= s_19_22 <= 1
 0 <= s_19_23 <= 1
 0 <= s_19_26 <= 1
 0 <= s_19_29 <= 1
 0 <= s_19_30 <= 1
 0 <= s_19_37 <= 1
 0 <= s_19_38 <= 1
 0 <= s_19_41 <= 1
 0 <= s_19_42 <= 1
 0 <= s_19_43 <= 1
 0 <= s_19_45 <= 1
 0 <= s_19_46 <= 1
 0 <= s_19_47 <= 1
 0 <= s_34_19 <= 1
 0 <= s_36_19 <= 1
 0 <= s_20_43 <= 1
 0 <= s_34_20 <= 1
 0 <= s_40_20 <= 1
 0 <= s_21_43 <= 1
 0 <= s_29_21 <= 1
 0 <= s_34_21 <= 1
 0 <= s_48_21 <= 1
 0 <= s_22_45 <= 1
 0 <= s_31_22 <= 1
 0 <= s_34_22 <= 1
 0 <= s_36_22 <= 1
 0 <= s_40_22 <= 1
 0 <= s_41_22 <= 1
 0 <= s_49_22 <= 1
 0 <= s_23_32 <= 1
 0 <= s_31_23 <= 1
 0 <= s_34_23 <= 1
 0 <= s_42_23 <= 1
 0 <= s_48_23 <= 1
 0 <= s_30_24 <= 1
 0 <= s_34_24 <= 1
 0 <= s_25_26 <= 1
 0 <= s_27_25 <= 1
 0 <= s_34_25 <= 1
 0 <= s_26_41 <= 1
 0 <= s_26_46 <= 1
 0 <= s_33_26 <= 1
 0 <= s_34_26 <= 1
 0 <= s_27_28 <= 1
 0 <= s_27_32 <= 1
 0 <= s_27_43 <= 1
 0 <= s_28_27 <= 1
 0 <= s_48_27 <= 1
 0 <= s_28_38 <= 1
 0 <= s_28_39 <= 1
 0 <= s_39_28 <= 1
 0 <= s_29_31 <= 1
 0 <= s_29_44 <= 1
 0 <= s_29_46 <= 1
 0 <= s_32_29 <= 1
 0 <= s_34_29 <= 1
 0 <= s_30_34 <= 1
 0 <= s_30_36 <= 1
 0 <= s_30_47 <= 1
 0 <= s_34_30 <= 1
 0 <= s_41_30 <= 1
 0 <= s_34_31 <= 1
 0 <= s_32_36 <= 1
 0 <= s_34_32 <= 1
 0 <= s_42_32 <= 1
 0 <= s_33_37 <= 1
 0 <= s_33_38 <= 1
 0 <= s_33_41 <= 1
 0 <= s_34_33 <= 1
 0 <= s_48_33 <= 1
 0 <= s_34_35 <= 1
 0 <= s_34_36 <= 1
 0 <= s_34_37 <= 1
 0 <= s_34_39 <= 1
 0 <= s_34_40 <= 1
 0 <= s_34_41 <= 1
 0 <= s_34_42 <= 1
 0 <= s_34_43 <= 1
 0 <= s_34_44 <= 1
 0 <= s_34_46 <= 1
 0 <= s_36_35 <= 1
 0 <= s_36_37 <= 1
 0 <= s_48_36 <= 1
 0 <= s_37_47 <= 1
 0 <= s_39_37 <= 1
 0 <= s_40_38 <= 1
 0 <= s_41_38 <= 1
 0 <= s_39_48 <= 1
 0 <= s_41_40 <= 1
 0 <= s_41_42 <= 1
 0 <= s_41_49 <= 1
 0 <= s_42_46 <= 1
 0 <= s_43_46 <= 1
 0 <= s_45_43 <= 1
 0 <= s_48_45 <= 1
 0 <= s_46_47 <= 1
End
